p ds 48 82
1 2
1 7
2 3
2 8
3 9
3 4
4 10
4 5
5 11
5 6
6 12
7 13
7 8
8 9
8 14
9 10
9 15
10 11
10 16
11 17
11 12
12 18
13 19
13 14
14 20
14 15
15 21
15 16
16 17
16 22
17 18
17 23
18 24
19 25
19 20
20 26
20 21
21 27
21 22
22 28
22 23
23 29
23 24
24 30
25 26
25 31
26 27
26 32
27 33
27 28
28 34
28 29
29 35
29 30
30 36
31 37
31 32
32 33
32 38
33 34
33 39
34 35
34 40
35 41
35 36
36 42
37 43
37 38
38 44
38 39
39 45
39 40
40 41
40 46
41 42
41 47
42 48
43 44
44 45
45 46
46 47
47 48
